89
125
100	8
99	9
98	9
97	6
96	3
95	6
94	6
93	9
92	6
91	8
90	6
89	13
88	6
87	11
86	12
85	9
84	6
83	13
82	7
81	7
80	10
79	10
78	5
77	9
76	5
75	4
74	6
73	4
72	10
71	11
70	5
69	6
68	7
67	12
66	10
65	8
64	8
63	6
62	9
61	6
60	7
59	8
58	7
57	9
56	8
55	9
54	7
53	6
52	12
51	6
50	8
49	14
48	6
47	9
46	9
45	10
44	6
43	4
42	15
41	9
40	10
39	4
38	6
37	10
36	11
35	8
34	7
33	10
32	11
31	10
30	5
29	11
28	10
27	7
26	11
25	8
24	14
23	11
22	9
21	9
20	11
19	9
18	3
17	12
16	9
15	12
14	9
13	14
12	9
